(declare-datatypes ((Unit 0)) (((unit))))
(declare-datatypes ((Bits 0)) (((Bits (len (_ BitVec 8)) (contents (_ BitVec 64))))))
(declare-datatypes ((Zfloat_bits 0)) (((Zfloat_bits (Zfloat_bits_zexp Bits) (Zfloat_bits_zmantissa Bits) (Zfloat_bits_zsign (_ BitVec 1))))))
(declare-datatypes ((Zexception 0)) (((z__dummy_exnz3 (unz__dummy_exnz3 Unit)))))
(declare-const zz41571/1 (_ BitVec 32))
(define-const zz41572/2 (_ BitVec 32) zz41571/1)
(declare-const zz41581/1 Bits)
(assert (= (bvand (bvnot (bvnot (bvshl #xFFFFFFFFFFFFFFFF (concat #x00000000000000 (len zz41581/1))))) (contents zz41581/1)) #x0000000000000000))
(declare-const zz41582/1 Bits)
(assert (= (bvand (bvnot (bvnot (bvshl #xFFFFFFFFFFFFFFFF (concat #x00000000000000 (len zz41582/1))))) (contents zz41582/1)) #x0000000000000000))
(define-const zz41582/2 Bits (Bits #x00 #x0000000000000000))
(define-const zz41578/2 (_ BitVec 32) (bvnot ((_ extract 31 0) (contents (Bits (len zz41582/2) (bvand (bvnot (bvshl #xFFFFFFFFFFFFFFFF (concat #x00000000000000 (len zz41582/2)))) (bvnot (contents zz41582/2))))))))
(assert (not (= (bvand zz41572/2 zz41578/2) (bvand (bvadd zz41572/2 #x00000000) zz41578/2))))
(check-sat)
